42 88 47 19 32 20 
83 45 78 4 72 
85 15 75 22 43 14 61 
37 54 31 10 100 
46 11 35 71 12 
48 62 9 66 70 
73 39 79 34 90 63 
18 95 44 6 89 7 82 58 
94 97 86 8 1 51 80 
36 24 55 25 
60 69 76 16 13 98 
2 23 41 68 50 81 
26 3 30 49 17 96 
65 29 21 74 93 
92 59 5 91 87 57 28 77 
33 99 56 52 
27 40 53 
84 
64 
67 
38 

